W=8;
H=7;

MAX_TIME=30;
MAX_TRACKS=14;

TARGET=(3,8);

N_TRAINS=2;
TRAINS=[(7,2,RIGHT),(3,2,RIGHT)];

N_INIT_POS=13;
INIT_POS=[
(2,3,STRAIGHT_TD),
(2,6,STRAIGHT_TD),
(3,2,STRAIGHT_RL),
(3,3,CORNER_TL),
(3,6,CORNER_TR),
(3,7,STRAIGHT_RL),
(3,8,STRAIGHT_RL),
(5,5,STRAIGHT_RL),
(7,2,STRAIGHT_RL),
(7,5,STRAIGHT_RL),
(7,7,EMPTY),
(6,5,EMPTY),
(6,5,EMPTY),
];
N_TUNNELS=2;
TUNNEL_PAIRS=[
  (1, 3, DOWN, 6, 8, LEFT),
  (1, 6, DOWN, 5, 2, RIGHT),
];

N_GATES=0;
GATES=[];
N_ACTIVATIONS=0;
ACTIVATIONS=[];

N_DSWITCHES=0;
DSWITCHES=[];
N_STATIONS=2;
STATIONS=[
  (5,5,2),
  (7,5,1),
];
